500 500 20
198 205 4
179 155 6
364 236 2
272 147 3
352 145 3
343 245 2
132 174 6
164 250 3
282 356 1
342 151 3
205 198 4
155 179 6
236 364 2
147 272 3
145 352 3
245 343 2
174 132 6
250 164 3
356 282 1
151 342 3
